% Generado automaticamente desde C:/Users/andres/Desktop/SEPTIMO SEMESTRE/ADAII/proyecto_final/Proyecto-Optimizacion-ADA2/BateriaPruebas_2025_2_P2-txt/Prueba15.txt

n = 50;
m = 3;
ct = 50.0;
maxMovs = 20.0;
v = [0.546, 0.552, 0.889];
p = [8, 20, 22];
s = [| 4, 0, 4 | 4, 11, 5 | 5, 17, 0 |];
